column=11;
row=11;
Board=[|0,0,7,0,0,4,6,9,10,0,0|1,11,0,0,7,0,5,10,6,0,0|10,0,0,0,0,0,4,0,0,0,0|0,0,0,0,0,0,0,0,0,10,7|0,0,10,7,11,0,8,0,0,0,0|0,0,1,0,0,0,0,4,0,2,10|0,0,0,0,0,8,11,5,0,6,3|0,10,0,0,0,1,2,0,11,3,8|6,7,11,0,0,0,0,8,0,0,5|0,0,0,0,0,0,0,0,0,0,0|0,6,0,9,0,0,0,0,0,0,0|];
horizontal=[|1,0,1,0,1,0,0,1,1,0|0,0,0,0,0,0,0,0,0,1|0,0,0,0,0,0,0,0,0,0|1,0,0,0,1,1,0,0,1,0|0,0,0,0,0,0,0,1,0,0|1,0,0,0,0,0,0,1,0,0|0,0,0,0,0,0,0,1,0,0|1,0,1,1,0,1,0,0,0,0|1,0,0,0,0,1,1,0,0,0|0,0,0,1,0,0,0,0,1,0|0,1,0,1,1,0,1,0,0,0|];
vertical=[|1,0,0,0,0,1,1,1,0,0,0|0,0,1,0,0,0,1,0,1,0,0|0,0,0,0,0,0,0,0,0,0,0|1,0,0,0,0,0,0,0,0,1,1|0,0,0,0,0,0,1,1,0,0,0|1,0,0,0,0,0,0,1,1,0,0|0,0,0,0,0,0,0,0,0,0,0|0,0,0,1,0,0,0,1,0,0,0|0,0,0,0,0,0,0,0,0,0,1|0,1,0,1,1,1,0,0,0,0,0|];
